p cnf 15 35
15 14 10 0
15 13 9 0
14 13 6 0
10 9 6 0
15 12 8 0
14 12 5 0
10 8 5 0
13 12 3 0
9 8 3 0
6 5 3 0
15 11 7 0
14 11 4 0
10 7 4 0
13 11 2 0
9 7 2 0
6 4 2 0
12 11 1 0
8 7 1 0
5 4 1 0
3 2 1 0
-15 -14 -10 -13 -9 -6 0
-15 -14 -10 -12 -8 -5 0
-15 -13 -9 -12 -8 -3 0
-14 -13 -6 -12 -5 -3 0
-10 -9 -6 -8 -5 -3 0
-15 -14 -10 -11 -7 -4 0
-15 -13 -9 -11 -7 -2 0
-14 -13 -6 -11 -4 -2 0
-10 -9 -6 -7 -4 -2 0
-15 -12 -8 -11 -7 -1 0
-14 -12 -5 -11 -4 -1 0
-10 -8 -5 -7 -4 -1 0
-13 -12 -3 -11 -2 -1 0
-9 -8 -3 -7 -2 -1 0
-6 -5 -3 -4 -2 -1 0
